c Dimacs file for task 1c - Hyperperiod 70, Framesize 5

p max 49 99

n 1 s
n 49 t

c nodes from S to Jobs (2-33)
c All 14 edges for T1(5,1)
a 1 2 1
a 1 3 1
a 1 4 1
a 1 5 1
a 1 6 1
a 1 7 1
a 1 8 1
a 1 9 1
a 1 10 1
a 1 11 1
a 1 12 1
a 1 13 1
a 1 14 1
a 1 15 1
c All 10 edges for T2(7,1)
a 1 16 1
a 1 17 1
a 1 18 1
a 1 19 1
a 1 20 1
a 1 21 1
a 1 22 1
a 1 23 1
a 1 24 1
a 1 25 1
c All 7 edges for T3(10, 3)
a 1 26 3
a 1 27 3
a 1 28 3
a 1 29 3
a 1 30 3
a 1 31 3
a 1 32 3
c All 2 edges for T4(35, 7)
a 1 33 7
a 1 34 7

c nodes from Jobs to Frames (34-46)
c All edges from T1 to Frames
a 2 35 1
a 3 36 1
a 4 37 1
a 5 38 1
a 6 39 1
a 7 40 1
a 8 41 1
a 9 42 1
a 10 43 1
a 11 44 1
a 12 45 1
a 13 46 1
a 14 47 1
a 15 48 1

c All edges from T2 to Frames
a 16 35 1

a 17 37 1
a 18 38 1

a 19 40 1
a 20 41 1
a 21 42 1

a 22 44 1
a 23 45 1

a 24 47 1
a 25 48 1

c All edges from T3 to Frames
a 26 35 3
a 26 36 3

a 27 37 3
a 27 38 3

a 28 39 3
a 28 40 3

a 29 41 3
a 29 42 3

a 30 43 3
a 30 44 3

a 31 45 3
a 31 46 3

a 32 47 3
a 32 48 3

c All edges from T4 to Frames
c Edges from 33 to [35, 41]
a 33 35 7
a 33 36 7
a 33 37 7
a 33 38 7
a 33 39 7
a 33 40 7
a 33 41 7

c Edges from 34 to [42, 48]
a 34 42 7
a 34 43 7
a 34 44 7
a 34 45 7
a 34 46 7
a 34 47 7
a 34 48 7

c Edges from Frames to Sink
a 35 49 5
a 36 49 5
a 37 49 5
a 38 49 5
a 39 49 5
a 40 49 5
a 41 49 5
a 42 49 5
a 43 49 5
a 44 49 5
a 45 49 5
a 46 49 5
a 47 49 5
a 48 49 5



